200
125
100
100
100
99
99
99
99
99
98
98
98
98
97
97
97
96
96
95
95
94
94
93
93
93
92
92
92
92
91
91
89
88
87
87
87
86
85
85
85
84
83
83
83
82
82
82
81
79
79
79
79
79
78
78
78
77
77
76
76
76
75
75
74
73
72
72
72
72
72
71
71
70
70
69
69
68
68
67
67
66
66
65
65
64
63
62
62
62
61
60
60
59
58
58
57
56
56
56
55
55
54
53
51
51
51
50
50
49
49
49
49
48
48
48
48
47
47
47
47
47
44
44
43
43
43
42
42
41
41
41
41
40
39
39
39
39
38
36
36
35
35
35
35
33
33
33
32
32
32
32
31
31
31
31
30
30
30
29
29
29
28
28
27
27
27
27
27
26
26
25
25
25
25
24
24
23
22
22
21
20
19
18
17
16
16
16
16
16
15
15
15
15
13
13
13
13
13
13
13
12
